40
1 0 1
2 0 4
2 1 4
3 0 3
3 1 1
3 2 2
4 0 1
4 1 4
4 2 1
4 3 5
5 0 1
5 1 5
5 2 2
5 3 3
5 4 5
6 0 1
6 1 1
6 2 3
6 3 5
6 4 5
6 5 4
7 0 3
7 1 4
7 2 1
7 3 5
7 4 5
7 5 3
7 6 4
8 0 4
8 1 1
8 2 2
8 3 5
8 4 4
8 5 5
8 6 2
8 7 2
9 0 2
9 1 4
9 2 2
9 3 4
9 4 3
9 5 2
9 6 1
9 7 4
9 8 3
10 0 2
10 1 5
10 2 4
10 3 2
10 4 3
10 5 4
10 6 2
10 7 3
10 8 2
10 9 1
11 0 5
11 1 4
11 2 5
11 3 3
11 4 2
11 5 1
11 6 5
11 7 4
11 8 5
11 9 3
11 10 5
12 0 3
12 1 3
12 2 3
12 3 3
12 4 5
12 5 4
12 6 4
12 7 4
12 8 1
12 9 2
12 10 5
12 11 4
13 0 5
13 1 5
13 2 1
13 3 4
13 4 4
13 5 4
13 6 4
13 7 4
13 8 1
13 9 1
13 10 4
13 11 2
13 12 5
14 0 5
14 1 2
14 2 3
14 3 5
14 4 5
14 5 2
14 6 4
14 7 1
14 8 5
14 9 4
14 10 5
14 11 5
14 12 5
14 13 5
15 0 4
15 1 1
15 2 1
15 3 5
15 4 4
15 5 5
15 6 2
15 7 4
15 8 2
15 9 1
15 10 3
15 11 3
15 12 3
15 13 3
15 14 4
16 0 4
16 1 2
16 2 3
16 3 3
16 4 3
16 5 2
16 6 3
16 7 5
16 8 2
16 9 1
16 10 2
16 11 2
16 12 5
16 13 4
16 14 1
16 15 4
17 0 3
17 1 2
17 2 5
17 3 2
17 4 1
17 5 5
17 6 3
17 7 3
17 8 4
17 9 4
17 10 5
17 11 3
17 12 4
17 13 4
17 14 4
17 15 1
17 16 2
18 0 5
18 1 3
18 2 2
18 3 5
18 4 3
18 5 1
18 6 4
18 7 2
18 8 5
18 9 1
18 10 1
18 11 5
18 12 3
18 13 4
18 14 4
18 15 3
18 16 3
18 17 5
19 0 1
19 1 5
19 2 1
19 3 4
19 4 2
19 5 5
19 6 5
19 7 2
19 8 1
19 9 2
19 10 3
19 11 4
19 12 1
19 13 5
19 14 1
19 15 4
19 16 5
19 17 1
19 18 1
20 0 3
20 1 4
20 2 1
20 3 5
20 4 1
20 5 1
20 6 1
20 7 2
20 8 5
20 9 5
20 10 1
20 11 4
20 12 1
20 13 3
20 14 4
20 15 5
20 16 5
20 17 5
20 18 5
20 19 5
21 0 3
21 1 4
21 2 5
21 3 5
21 4 5
21 5 5
21 6 5
21 7 3
21 8 3
21 9 5
21 10 2
21 11 2
21 12 4
21 13 4
21 14 1
21 15 5
21 16 2
21 17 5
21 18 3
21 19 2
21 20 1
22 0 2
22 1 2
22 2 3
22 3 3
22 4 3
22 5 2
22 6 4
22 7 3
22 8 3
22 9 4
22 10 3
22 11 4
22 12 5
22 13 2
22 14 1
22 15 1
22 16 5
22 17 4
22 18 5
22 19 5
22 20 3
22 21 5
23 0 3
23 1 5
23 2 4
23 3 5
23 4 2
23 5 4
23 6 5
23 7 2
23 8 5
23 9 1
23 10 3
23 11 5
23 12 1
23 13 5
23 14 5
23 15 5
23 16 4
23 17 4
23 18 5
23 19 4
23 20 4
23 21 4
23 22 1
24 0 5
24 1 5
24 2 1
24 3 4
24 4 2
24 5 5
24 6 5
24 7 5
24 8 1
24 9 1
24 10 1
24 11 5
24 12 2
24 13 1
24 14 5
24 15 5
24 16 1
24 17 3
24 18 2
24 19 1
24 20 3
24 21 2
24 22 3
24 23 2
25 0 5
25 1 3
25 2 5
25 3 2
25 4 5
25 5 5
25 6 5
25 7 5
25 8 4
25 9 2
25 10 2
25 11 3
25 12 5
25 13 1
25 14 1
25 15 5
25 16 3
25 17 3
25 18 5
25 19 5
25 20 4
25 21 2
25 22 2
25 23 5
25 24 5
26 0 4
26 1 3
26 2 1
26 3 1
26 4 2
26 5 3
26 6 4
26 7 4
26 8 3
26 9 1
26 10 2
26 11 4
26 12 3
26 13 3
26 14 5
26 15 2
26 16 4
26 17 2
26 18 5
26 19 3
26 20 3
26 21 5
26 22 1
26 23 4
26 24 4
26 25 1
27 0 3
27 1 2
27 2 4
27 3 1
27 4 1
27 5 2
27 6 3
27 7 2
27 8 3
27 9 4
27 10 3
27 11 2
27 12 1
27 13 4
27 14 2
27 15 3
27 16 3
27 17 3
27 18 5
27 19 5
27 20 5
27 21 2
27 22 1
27 23 5
27 24 3
27 25 4
27 26 4
28 0 4
28 1 4
28 2 2
28 3 1
28 4 3
28 5 4
28 6 5
28 7 3
28 8 1
28 9 1
28 10 3
28 11 3
28 12 5
28 13 4
28 14 5
28 15 3
28 16 1
28 17 1
28 18 3
28 19 1
28 20 3
28 21 2
28 22 5
28 23 5
28 24 2
28 25 4
28 26 2
28 27 3
29 0 2
29 1 2
29 2 1
29 3 1
29 4 4
29 5 4
29 6 1
29 7 4
29 8 5
29 9 5
29 10 2
29 11 4
29 12 1
29 13 1
29 14 5
29 15 5
29 16 2
29 17 1
29 18 4
29 19 2
29 20 1
29 21 3
29 22 1
29 23 5
29 24 3
29 25 2
29 26 4
29 27 1
29 28 3
30 0 2
30 1 4
30 2 5
30 3 4
30 4 2
30 5 2
30 6 3
30 7 3
30 8 2
30 9 1
30 10 3
30 11 2
30 12 5
30 13 2
30 14 4
30 15 2
30 16 5
30 17 5
30 18 4
30 19 1
30 20 5
30 21 2
30 22 5
30 23 2
30 24 3
30 25 1
30 26 2
30 27 1
30 28 4
30 29 2
31 0 5
31 1 5
31 2 5
31 3 2
31 4 4
31 5 5
31 6 3
31 7 2
31 8 5
31 9 2
31 10 2
31 11 2
31 12 1
31 13 5
31 14 5
31 15 3
31 16 3
31 17 3
31 18 4
31 19 4
31 20 1
31 21 5
31 22 2
31 23 2
31 24 4
31 25 4
31 26 5
31 27 2
31 28 3
31 29 4
31 30 2
32 0 4
32 1 5
32 2 5
32 3 2
32 4 4
32 5 3
32 6 4
32 7 2
32 8 2
32 9 1
32 10 5
32 11 2
32 12 3
32 13 4
32 14 4
32 15 2
32 16 2
32 17 2
32 18 5
32 19 1
32 20 5
32 21 3
32 22 1
32 23 5
32 24 2
32 25 3
32 26 5
32 27 1
32 28 5
32 29 3
32 30 3
32 31 1
33 0 4
33 1 4
33 2 2
33 3 4
33 4 5
33 5 5
33 6 2
33 7 1
33 8 2
33 9 2
33 10 3
33 11 1
33 12 5
33 13 3
33 14 4
33 15 2
33 16 2
33 17 3
33 18 3
33 19 3
33 20 3
33 21 2
33 22 2
33 23 3
33 24 4
33 25 1
33 26 3
33 27 3
33 28 2
33 29 4
33 30 3
33 31 4
33 32 1
34 0 1
34 1 2
34 2 4
34 3 1
34 4 5
34 5 4
34 6 5
34 7 4
34 8 1
34 9 5
34 10 5
34 11 3
34 12 2
34 13 5
34 14 5
34 15 2
34 16 1
34 17 4
34 18 2
34 19 1
34 20 5
34 21 4
34 22 5
34 23 5
34 24 2
34 25 5
34 26 1
34 27 1
34 28 5
34 29 5
34 30 2
34 31 4
34 32 4
34 33 5
35 0 1
35 1 2
35 2 2
35 3 5
35 4 2
35 5 1
35 6 4
35 7 3
35 8 1
35 9 3
35 10 1
35 11 3
35 12 5
35 13 1
35 14 3
35 15 5
35 16 4
35 17 2
35 18 3
35 19 1
35 20 2
35 21 3
35 22 3
35 23 3
35 24 5
35 25 5
35 26 2
35 27 2
35 28 2
35 29 4
35 30 5
35 31 2
35 32 2
35 33 3
35 34 2
36 0 2
36 1 1
36 2 5
36 3 2
36 4 3
36 5 3
36 6 5
36 7 2
36 8 4
36 9 1
36 10 1
36 11 5
36 12 4
36 13 2
36 14 4
36 15 1
36 16 5
36 17 3
36 18 2
36 19 2
36 20 2
36 21 1
36 22 4
36 23 5
36 24 4
36 25 2
36 26 5
36 27 1
36 28 2
36 29 5
36 30 5
36 31 1
36 32 4
36 33 5
36 34 3
36 35 2
37 0 5
37 1 2
37 2 5
37 3 3
37 4 2
37 5 1
37 6 3
37 7 2
37 8 5
37 9 5
37 10 2
37 11 5
37 12 4
37 13 1
37 14 5
37 15 1
37 16 1
37 17 2
37 18 4
37 19 2
37 20 5
37 21 5
37 22 1
37 23 4
37 24 2
37 25 5
37 26 5
37 27 5
37 28 2
37 29 2
37 30 1
37 31 4
37 32 4
37 33 5
37 34 4
37 35 1
37 36 5
38 0 1
38 1 3
38 2 2
38 3 4
38 4 5
38 5 4
38 6 4
38 7 1
38 8 1
38 9 2
38 10 4
38 11 4
38 12 1
38 13 1
38 14 1
38 15 4
38 16 4
38 17 2
38 18 4
38 19 5
38 20 4
38 21 4
38 22 3
38 23 3
38 24 1
38 25 1
38 26 4
38 27 4
38 28 5
38 29 3
38 30 2
38 31 3
38 32 3
38 33 1
38 34 2
38 35 3
38 36 2
38 37 5
39 0 1
39 1 4
39 2 1
39 3 3
39 4 2
39 5 3
39 6 2
39 7 2
39 8 2
39 9 4
39 10 2
39 11 3
39 12 1
39 13 2
39 14 4
39 15 4
39 16 2
39 17 3
39 18 1
39 19 3
39 20 5
39 21 4
39 22 3
39 23 2
39 24 2
39 25 5
39 26 1
39 27 5
39 28 5
39 29 5
39 30 1
39 31 5
39 32 3
39 33 5
39 34 4
39 35 3
39 36 4
39 37 3
39 38 2
